eval/18-encs/equiv_enc_222.smt2
; DUP3 SWAP2 SWAP1 SHA3 SSTORE POP => SHA3 SSTORE
(set-option :produce-proofs true)
; 
(set-info :status unknown)
(declare-fun storage_t ((_ BitVec 256) (_ BitVec 256) (_ BitVec 256) (_ BitVec 256) (_ BitVec 256) Int (_ BitVec 256)) (_ BitVec 256))
(declare-fun storage_s ((_ BitVec 256) (_ BitVec 256) (_ BitVec 256) (_ BitVec 256) (_ BitVec 256) Int (_ BitVec 256)) (_ BitVec 256))
(declare-fun exc_halt_t (Int) Bool)
(declare-fun exc_halt_s (Int) Bool)
(declare-fun sc_t (Int) (_ BitVec 6))
(declare-fun stack_t ((_ BitVec 256) (_ BitVec 256) (_ BitVec 256) (_ BitVec 256) (_ BitVec 256) Int (_ BitVec 6)) (_ BitVec 256))
(declare-fun stack_s ((_ BitVec 256) (_ BitVec 256) (_ BitVec 256) (_ BitVec 256) (_ BitVec 256) Int (_ BitVec 6)) (_ BitVec 256))
(declare-fun sc_s (Int) (_ BitVec 6))
(declare-fun used_gas_t ((_ BitVec 256) (_ BitVec 256) (_ BitVec 256) (_ BitVec 256) (_ BitVec 256) Int) Int)
(declare-fun used_gas_s ((_ BitVec 256) (_ BitVec 256) (_ BitVec 256) (_ BitVec 256) (_ BitVec 256) Int) Int)
(declare-fun f_SHA3 ((_ BitVec 256) (_ BitVec 256) (_ BitVec 256) (_ BitVec 256) (_ BitVec 256) (_ BitVec 256) (_ BitVec 256)) (_ BitVec 256))
(assert
 (exists ((x_0 (_ BitVec 256)) (x_1 (_ BitVec 256)) (x_2 (_ BitVec 256)) (x_SSTORE_0 (_ BitVec 256)) (x_SHA3_0 (_ BitVec 256)) )(let (($x1256 (forall ((w (_ BitVec 256)) )(let ((?x9567 (storage_t x_0 x_1 x_2 x_SSTORE_0 x_SHA3_0 2 w)))
 (let ((?x9072 (storage_s x_0 x_1 x_2 x_SSTORE_0 x_SHA3_0 6 w)))
 (= ?x9072 ?x9567))))
 ))
 (let (($x903 (exc_halt_t 2)))
 (let (($x772 (exc_halt_s 6)))
 (let (($x7106 (= $x772 $x903)))
 (let (($x2274 (forall ((n (_ BitVec 6)) )(let ((?x5599 (stack_t x_0 x_1 x_2 x_SSTORE_0 x_SHA3_0 2 n)))
 (let ((?x9708 (stack_s x_0 x_1 x_2 x_SSTORE_0 x_SHA3_0 6 n)))
 (let (($x9294 (= ?x9708 ?x5599)))
 (or $x9294 (bvsle (sc_t 2) n))))))
 ))
 (let ((?x4056 (sc_t 2)))
 (let ((?x926 (sc_s 6)))
 (let (($x1103 (= ?x926 ?x4056)))
 (let ((?x4210 (used_gas_t x_0 x_1 x_2 x_SSTORE_0 x_SHA3_0 0)))
 (let ((?x5127 (used_gas_s x_0 x_1 x_2 x_SSTORE_0 x_SHA3_0 0)))
 (let (($x10048 (= ?x5127 ?x4210)))
 (let (($x6131 (forall ((w (_ BitVec 256)) )(let ((?x9269 (storage_t x_0 x_1 x_2 x_SSTORE_0 x_SHA3_0 0 w)))
 (let ((?x10077 (storage_s x_0 x_1 x_2 x_SSTORE_0 x_SHA3_0 0 w)))
 (= ?x10077 ?x9269))))
 ))
 (let (($x56 (exc_halt_t 0)))
 (let (($x57 (exc_halt_s 0)))
 (let (($x58 (= $x57 $x56)))
 (let (($x3685 (forall ((n (_ BitVec 6)) )(let ((?x9773 (stack_t x_0 x_1 x_2 x_SSTORE_0 x_SHA3_0 0 n)))
 (let ((?x9477 (stack_s x_0 x_1 x_2 x_SSTORE_0 x_SHA3_0 0 n)))
 (let (($x940 (= ?x9477 ?x9773)))
 (let ((?x63 (sc_t 0)))
 (let (($x515 (bvsle ?x63 n)))
 (or $x515 $x940)))))))
 ))
 (let ((?x63 (sc_t 0)))
 (let ((?x72 (sc_s 0)))
 (let (($x73 (= ?x72 ?x63)))
 (let (($x538 (= $x903 (or (exc_halt_t 1) (not (bvsle (_ bv0 6) (bvadd (_ bv62 6) (sc_t 1))))))))
 (let (($x10750 (forall ((n (_ BitVec 6)) )(let ((?x6277 (stack_t x_0 x_1 x_2 x_SSTORE_0 x_SHA3_0 1 n)))
 (let ((?x5599 (stack_t x_0 x_1 x_2 x_SSTORE_0 x_SHA3_0 2 n)))
 (let (($x5164 (= ?x5599 ?x6277)))
 (let ((?x4023 (sc_t 1)))
 (let ((?x3913 (bvadd (_ bv62 6) ?x4023)))
 (let (($x1055 (bvsle ?x3913 n)))
 (or $x1055 $x5164))))))))
 ))
 (let ((?x4023 (sc_t 1)))
 (let ((?x3913 (bvadd (_ bv62 6) ?x4023)))
 (let ((?x5798 (stack_t x_0 x_1 x_2 x_SSTORE_0 x_SHA3_0 1 ?x3913)))
 (let (($x6493 (= ?x5798 (_ bv0 256))))
 (let ((?x10675 (bvadd (_ bv63 6) ?x4023)))
 (let ((?x3597 (stack_t x_0 x_1 x_2 x_SSTORE_0 x_SHA3_0 1 ?x10675)))
 (let ((?x8066 (ite (= (storage_t x_0 x_1 x_2 x_SSTORE_0 x_SHA3_0 1 ?x3597) (_ bv0 256)) (ite $x6493 5000 20000) (ite $x6493 (- 10000) 5000))))
 (let ((?x10413 (used_gas_t x_0 x_1 x_2 x_SSTORE_0 x_SHA3_0 1)))
 (let ((?x4396 (used_gas_t x_0 x_1 x_2 x_SSTORE_0 x_SHA3_0 2)))
 (let (($x2188 (forall ((w (_ BitVec 256)) )(let ((?x7350 (storage_t x_0 x_1 x_2 x_SSTORE_0 x_SHA3_0 1 w)))
 (let (($x6624 (= w (stack_t x_0 x_1 x_2 x_SSTORE_0 x_SHA3_0 1 (bvadd (_ bv63 6) (sc_t 1))))))
 (let ((?x10738 (ite $x6624 (stack_t x_0 x_1 x_2 x_SSTORE_0 x_SHA3_0 1 (bvadd (_ bv62 6) (sc_t 1))) ?x7350)))
 (let ((?x9567 (storage_t x_0 x_1 x_2 x_SSTORE_0 x_SHA3_0 2 w)))
 (= ?x9567 ?x10738))))))
 ))
 (let (($x6917 (forall ((w (_ BitVec 256)) )(let ((?x9269 (storage_t x_0 x_1 x_2 x_SSTORE_0 x_SHA3_0 0 w)))
 (let ((?x7350 (storage_t x_0 x_1 x_2 x_SSTORE_0 x_SHA3_0 1 w)))
 (= ?x7350 ?x9269))))
 ))
 (let (($x195 (forall ((n (_ BitVec 6)) )(let ((?x9773 (stack_t x_0 x_1 x_2 x_SSTORE_0 x_SHA3_0 0 n)))
 (let ((?x6277 (stack_t x_0 x_1 x_2 x_SSTORE_0 x_SHA3_0 1 n)))
 (let (($x2802 (= ?x6277 ?x9773)))
 (or $x2802 (bvsle (bvadd (_ bv62 6) (sc_t 0)) n))))))
 ))
 (let ((?x4382 (bvadd (_ bv62 6) ?x63)))
 (let ((?x6059 (stack_t x_0 x_1 x_2 x_SSTORE_0 x_SHA3_0 0 ?x4382)))
 (let ((?x3266 (bvadd (_ bv63 6) ?x63)))
 (let ((?x7812 (stack_t x_0 x_1 x_2 x_SSTORE_0 x_SHA3_0 0 ?x3266)))
 (let (($x8032 (= $x772 (or (exc_halt_s 5) (not (bvsle (_ bv0 6) (bvadd (_ bv63 6) (sc_s 5))))))))
 (let (($x1935 (forall ((w (_ BitVec 256)) )(let ((?x2461 (storage_s x_0 x_1 x_2 x_SSTORE_0 x_SHA3_0 5 w)))
 (let ((?x9072 (storage_s x_0 x_1 x_2 x_SSTORE_0 x_SHA3_0 6 w)))
 (= ?x9072 ?x2461))))
 ))
 (let (($x838 (forall ((n (_ BitVec 6)) )(let ((?x354 (stack_s x_0 x_1 x_2 x_SSTORE_0 x_SHA3_0 5 n)))
 (let ((?x9708 (stack_s x_0 x_1 x_2 x_SSTORE_0 x_SHA3_0 6 n)))
 (let (($x6621 (= ?x9708 ?x354)))
 (or (bvsle (bvadd (_ bv63 6) (sc_s 5)) n) $x6621)))))
 ))
 (let ((?x8205 (used_gas_s x_0 x_1 x_2 x_SSTORE_0 x_SHA3_0 6)))
 (let (($x3979 (exc_halt_s 5)))
 (let (($x810 (= $x3979 (or (exc_halt_s 4) (not (bvsle (_ bv0 6) (bvadd (_ bv62 6) (sc_s 4))))))))
 (let (($x9049 (forall ((n (_ BitVec 6)) )(let ((?x1052 (stack_s x_0 x_1 x_2 x_SSTORE_0 x_SHA3_0 4 n)))
 (let ((?x354 (stack_s x_0 x_1 x_2 x_SSTORE_0 x_SHA3_0 5 n)))
 (let ((?x4305 (sc_s 4)))
 (let ((?x9342 (bvadd (_ bv62 6) ?x4305)))
 (let (($x6118 (bvsle ?x9342 n)))
 (or $x6118 (= ?x354 ?x1052))))))))
 ))
 (let ((?x4305 (sc_s 4)))
 (let ((?x9342 (bvadd (_ bv62 6) ?x4305)))
 (let ((?x7399 (stack_s x_0 x_1 x_2 x_SSTORE_0 x_SHA3_0 4 ?x9342)))
 (let (($x5070 (= ?x7399 (_ bv0 256))))
 (let ((?x4463 (bvadd (_ bv63 6) ?x4305)))
 (let ((?x10041 (stack_s x_0 x_1 x_2 x_SSTORE_0 x_SHA3_0 4 ?x4463)))
 (let ((?x8480 (ite (= (storage_s x_0 x_1 x_2 x_SSTORE_0 x_SHA3_0 4 ?x10041) (_ bv0 256)) (ite $x5070 5000 20000) (ite $x5070 (- 10000) 5000))))
 (let ((?x42 (used_gas_s x_0 x_1 x_2 x_SSTORE_0 x_SHA3_0 4)))
 (let ((?x6382 (used_gas_s x_0 x_1 x_2 x_SSTORE_0 x_SHA3_0 5)))
 (let (($x1310 (forall ((w (_ BitVec 256)) )(let ((?x4486 (storage_s x_0 x_1 x_2 x_SSTORE_0 x_SHA3_0 4 w)))
 (let (($x1418 (= w (stack_s x_0 x_1 x_2 x_SSTORE_0 x_SHA3_0 4 (bvadd (_ bv63 6) (sc_s 4))))))
 (let ((?x9613 (ite $x1418 (stack_s x_0 x_1 x_2 x_SSTORE_0 x_SHA3_0 4 (bvadd (_ bv62 6) (sc_s 4))) ?x4486)))
 (let ((?x2461 (storage_s x_0 x_1 x_2 x_SSTORE_0 x_SHA3_0 5 w)))
 (= ?x2461 ?x9613))))))
 ))
 (let (($x64 (exc_halt_s 4)))
 (let (($x11781 (= $x64 (or (exc_halt_s 3) (not (bvsle (_ bv0 6) (bvadd (_ bv62 6) (sc_s 3))))))))
 (let (($x10744 (forall ((w (_ BitVec 256)) )(let ((?x1927 (storage_s x_0 x_1 x_2 x_SSTORE_0 x_SHA3_0 3 w)))
 (let ((?x4486 (storage_s x_0 x_1 x_2 x_SSTORE_0 x_SHA3_0 4 w)))
 (= ?x4486 ?x1927))))
 ))
 (let (($x8284 (forall ((n (_ BitVec 6)) )(let ((?x5606 (stack_s x_0 x_1 x_2 x_SSTORE_0 x_SHA3_0 3 n)))
 (let ((?x1052 (stack_s x_0 x_1 x_2 x_SSTORE_0 x_SHA3_0 4 n)))
 (let (($x6318 (= ?x1052 ?x5606)))
 (let ((?x275 (sc_s 3)))
 (let ((?x10568 (bvadd (_ bv62 6) ?x275)))
 (let (($x1983 (bvsle ?x10568 n)))
 (or $x1983 $x6318))))))))
 ))
 (let ((?x275 (sc_s 3)))
 (let ((?x7729 (bvadd (_ bv63 6) ?x275)))
 (let (($x8309 (= ?x4305 ?x7729)))
 (let ((?x10568 (bvadd (_ bv62 6) ?x275)))
 (let ((?x1675 (stack_s x_0 x_1 x_2 x_SSTORE_0 x_SHA3_0 3 ?x10568)))
 (let ((?x5476 (stack_s x_0 x_1 x_2 x_SSTORE_0 x_SHA3_0 3 ?x7729)))
 (let (($x292 (exc_halt_s 3)))
 (let (($x8102 (= $x292 (or (exc_halt_s 2) (not (bvsle (_ bv0 6) (bvadd (_ bv62 6) (sc_s 2))))))))
 (let (($x7127 (forall ((w (_ BitVec 256)) )(let ((?x5813 (storage_s x_0 x_1 x_2 x_SSTORE_0 x_SHA3_0 2 w)))
 (let ((?x1927 (storage_s x_0 x_1 x_2 x_SSTORE_0 x_SHA3_0 3 w)))
 (= ?x1927 ?x5813))))
 ))
 (let (($x3874 (forall ((n (_ BitVec 6)) )(let ((?x2606 (stack_s x_0 x_1 x_2 x_SSTORE_0 x_SHA3_0 2 n)))
 (let ((?x5606 (stack_s x_0 x_1 x_2 x_SSTORE_0 x_SHA3_0 3 n)))
 (let (($x3582 (= ?x5606 ?x2606)))
 (or (bvsle (bvadd (_ bv62 6) (sc_s 2)) n) $x3582)))))
 ))
 (let ((?x218 (sc_s 2)))
 (let (($x3321 (= ?x275 ?x218)))
 (let ((?x10727 (used_gas_s x_0 x_1 x_2 x_SSTORE_0 x_SHA3_0 3)))
 (let (($x1044 (= ?x10727 (+ 3 (used_gas_s x_0 x_1 x_2 x_SSTORE_0 x_SHA3_0 2)))))
 (let (($x247 (exc_halt_s 2)))
 (let (($x918 (= $x247 (or (exc_halt_s 1) (not (bvsle (_ bv0 6) (bvadd (_ bv61 6) (sc_s 1))))))))
 (let (($x1526 (forall ((w (_ BitVec 256)) )(let ((?x3188 (storage_s x_0 x_1 x_2 x_SSTORE_0 x_SHA3_0 1 w)))
 (let ((?x5813 (storage_s x_0 x_1 x_2 x_SSTORE_0 x_SHA3_0 2 w)))
 (= ?x5813 ?x3188))))
 ))
 (let (($x10659 (forall ((n (_ BitVec 6)) )(let ((?x5210 (stack_s x_0 x_1 x_2 x_SSTORE_0 x_SHA3_0 1 n)))
 (let ((?x2606 (stack_s x_0 x_1 x_2 x_SSTORE_0 x_SHA3_0 2 n)))
 (let (($x3931 (= ?x2606 ?x5210)))
 (or $x3931 (bvsle (bvadd (_ bv61 6) (sc_s 1)) n))))))
 ))
 (let ((?x154 (sc_s 1)))
 (let (($x1121 (= ?x218 ?x154)))
 (let ((?x93 (used_gas_s x_0 x_1 x_2 x_SSTORE_0 x_SHA3_0 2)))
 (let ((?x9511 (stack_s x_0 x_1 x_2 x_SSTORE_0 x_SHA3_0 1 (bvadd (_ bv62 6) ?x154))))
 (let ((?x2547 (bvadd (_ bv62 6) ?x218)))
 (let ((?x6309 (stack_s x_0 x_1 x_2 x_SSTORE_0 x_SHA3_0 2 ?x2547)))
 (let ((?x4815 (bvadd (_ bv63 6) ?x154)))
 (let ((?x8391 (stack_s x_0 x_1 x_2 x_SSTORE_0 x_SHA3_0 1 ?x4815)))
 (let ((?x431 (bvadd (_ bv61 6) ?x218)))
 (let ((?x10205 (stack_s x_0 x_1 x_2 x_SSTORE_0 x_SHA3_0 2 ?x431)))
 (let ((?x5002 (bvadd (_ bv61 6) ?x154)))
 (let ((?x76 (stack_s x_0 x_1 x_2 x_SSTORE_0 x_SHA3_0 1 ?x5002)))
 (let ((?x5628 (bvadd (_ bv63 6) ?x218)))
 (let ((?x1413 (stack_s x_0 x_1 x_2 x_SSTORE_0 x_SHA3_0 2 ?x5628)))
 (let (($x1165 (not (= ((_ extract 6 6) (bvadd (_ bv1 7) (concat (_ bv0 1) ?x72))) (_ bv0 1)))))
 (let (($x189 (exc_halt_s 1)))
 (let (($x8650 (forall ((w (_ BitVec 256)) )(let ((?x10077 (storage_s x_0 x_1 x_2 x_SSTORE_0 x_SHA3_0 0 w)))
 (let ((?x3188 (storage_s x_0 x_1 x_2 x_SSTORE_0 x_SHA3_0 1 w)))
 (= ?x3188 ?x10077))))
 ))
 (let (($x8702 (forall ((n (_ BitVec 6)) )(let ((?x9477 (stack_s x_0 x_1 x_2 x_SSTORE_0 x_SHA3_0 0 n)))
 (let ((?x5210 (stack_s x_0 x_1 x_2 x_SSTORE_0 x_SHA3_0 1 n)))
 (let (($x1311 (= ?x5210 ?x9477)))
 (or $x1311 (bvsle (bvadd (_ bv61 6) (sc_s 0)) n))))))
 ))
 (let (($x1866 (= ?x154 (bvadd (_ bv1 6) ?x72))))
 (let ((?x1834 (used_gas_s x_0 x_1 x_2 x_SSTORE_0 x_SHA3_0 1)))
 (let (($x9721 (= ?x1834 (+ 3 ?x5127))))
 (let ((?x5299 (bvadd (_ bv63 6) ?x72)))
 (let ((?x4800 (stack_s x_0 x_1 x_2 x_SSTORE_0 x_SHA3_0 0 ?x5299)))
 (let ((?x2958 (bvadd (_ bv62 6) ?x72)))
 (let ((?x9153 (stack_s x_0 x_1 x_2 x_SSTORE_0 x_SHA3_0 0 ?x2958)))
 (let ((?x6925 (bvadd (_ bv61 6) ?x72)))
 (let ((?x9229 (stack_s x_0 x_1 x_2 x_SSTORE_0 x_SHA3_0 0 ?x6925)))
 (let (($x2671 (forall ((w0 (_ BitVec 256)) (w1 (_ BitVec 256)) )(let (($x2450 (= (stack_s x_0 x_1 x_2 x_SSTORE_0 x_SHA3_0 3 (bvadd (_ bv62 6) (sc_s 3))) w1)))
 (let (($x8816 (= (stack_s x_0 x_1 x_2 x_SSTORE_0 x_SHA3_0 3 (bvadd (_ bv63 6) (sc_s 3))) w0)))
 (let ((?x2148 (f_SHA3 x_0 x_1 x_2 x_SSTORE_0 x_SHA3_0 w0 w1)))
 (= ?x2148 (ite (and $x8816 $x2450) x_SHA3_0 (_ bv0 256)))))))
 ))
 (let (($x10860 (forall ((w (_ BitVec 256)) )(let (($x1418 (= w (stack_s x_0 x_1 x_2 x_SSTORE_0 x_SHA3_0 4 (bvadd (_ bv63 6) (sc_s 4))))))
 (let ((?x10077 (storage_s x_0 x_1 x_2 x_SSTORE_0 x_SHA3_0 0 w)))
 (= ?x10077 (ite $x1418 x_SSTORE_0 (_ bv0 256))))))
 ))
 (let (($x7755 (= ?x5127 0)))
 (let (($x2460 (not $x57)))
 (let (($x8290 (= (stack_s x_0 x_1 x_2 x_SSTORE_0 x_SHA3_0 0 (_ bv2 6)) x_2)))
 (let (($x1332 (= (stack_s x_0 x_1 x_2 x_SSTORE_0 x_SHA3_0 0 (_ bv1 6)) x_1)))
 (let (($x5379 (= (stack_s x_0 x_1 x_2 x_SSTORE_0 x_SHA3_0 0 (_ bv0 6)) x_0)))
 (let (($x3212 (= ?x72 (_ bv3 6))))
 (and $x3212 $x5379 $x1332 $x8290 $x2460 $x7755 $x10860 $x2671 (= ?x8391 ?x9229) (= (stack_s x_0 x_1 x_2 x_SSTORE_0 x_SHA3_0 1 ?x6925) ?x9229) (= (stack_s x_0 x_1 x_2 x_SSTORE_0 x_SHA3_0 1 ?x2958) ?x9153) (= (stack_s x_0 x_1 x_2 x_SSTORE_0 x_SHA3_0 1 ?x5299) ?x4800) $x9721 $x1866 $x8702 $x8650 (= $x189 (or $x57 $x1165 (not (bvsle (_ bv0 6) ?x6925)))) (= ?x1413 ?x76) (= ?x10205 ?x8391) (= ?x6309 ?x9511) (= ?x93 (+ 3 ?x1834)) $x1121 $x10659 $x1526 $x918 (= ?x5476 ?x6309) (= ?x1675 ?x1413) $x1044 $x3321 $x3874 $x7127 $x8102 (= ?x10041 (f_SHA3 x_0 x_1 x_2 x_SSTORE_0 x_SHA3_0 ?x5476 ?x1675)) (= ?x42 (+ 30 ?x10727)) $x8309 $x8284 $x10744 $x11781 $x1310 (= ?x6382 (+ ?x42 ?x8480)) (= (sc_s 5) ?x9342) $x9049 $x810 (= ?x8205 (+ 2 ?x6382)) (= ?x926 (bvadd (_ bv63 6) (sc_s 5))) $x838 $x1935 $x8032 (= ?x3597 (f_SHA3 x_0 x_1 x_2 x_SSTORE_0 x_SHA3_0 ?x7812 ?x6059)) (= ?x10413 (+ 30 ?x4210)) (= ?x4023 ?x3266) $x195 $x6917 (= (exc_halt_t 1) (or $x56 (not (bvsle (_ bv0 6) ?x4382)))) $x2188 (= ?x4396 (+ ?x10413 ?x8066)) (= ?x4056 ?x3913) $x10750 $x538 $x73 $x3685 $x58 $x6131 $x10048 (not (and $x1103 $x2274 $x7106 $x1256)))))))))))))))))))))))))))))))))))))))))))))))))))))))))))))))))))))))))))))))))))))))))))))))))))))))))))))))))))
 )
(check-sat)
(get-proof)
